
Gurobi 11.0.1 (win64) logging started Tue May 14 18:25:57 2024

Set parameter LogFile to value "output/solver_log32.txt"
Gurobi Optimizer version 11.0.1 build v11.0.1rc0 (win64 - Windows 11.0 (22631.2))

CPU model: 11th Gen Intel(R) Core(TM) i7-1165G7 @ 2.80GHz, instruction set [SSE2|AVX|AVX2|AVX512]
Thread count: 4 physical cores, 8 logical processors, using up to 8 threads

Optimize a model with 1048 rows, 191 columns and 19662 nonzeros
Model fingerprint: 0xb860c185
Variable types: 88 continuous, 103 integer (103 binary)
Coefficient statistics:
  Matrix range     [4e-01, 1e+05]
  Objective range  [1e+00, 1e+02]
  Bounds range     [1e+00, 1e+00]
  RHS range        [1e-02, 1e+05]

User MIP start produced solution with objective 38085.5 (0.00s)
User MIP start produced solution with objective 39414.8 (0.00s)
User MIP start produced solution with objective 39414.8 (0.00s)
Loaded user MIP start with objective 39414.8

Presolve removed 74 rows and 76 columns
Presolve time: 0.02s
Presolved: 974 rows, 115 columns, 19149 nonzeros
Variable types: 81 continuous, 34 integer (34 binary)

Root relaxation: objective 4.019465e+04, 234 iterations, 0.01 seconds (0.03 work units)

    Nodes    |    Current Node    |     Objective Bounds      |     Work
 Expl Unexpl |  Obj  Depth IntInf | Incumbent    BestBd   Gap | It/Node Time

     0     0 40194.6493    0    3 39414.8382 40194.6493  1.98%     -    0s
     0     0          -    0      39414.8382 39416.9942  0.01%     -    0s

Explored 1 nodes (237 simplex iterations) in 0.06 seconds (0.10 work units)
Thread count was 8 (of 8 available processors)

Solution count 3: 39414.8 39414.8 38085.5 

Optimal solution found (tolerance 1.00e-04)
Best objective 3.941483821470e+04, best bound 3.941699422335e+04, gap 0.0055%
